(set-info :smt-lib-version 2.6)
(set-logic QF_UFLRA)
(set-info :source |
MathSat group

|)
(set-info :category "random")
(set-info :status sat)
(declare-fun x0 () Real)
(declare-fun x1 () Real)
(declare-fun x2 () Real)
(declare-fun x3 () Real)
(declare-fun x4 () Real)
(declare-fun x5 () Real)
(declare-fun x6 () Real)
(declare-fun x7 () Real)
(declare-fun x8 () Real)
(declare-fun x9 () Real)
(declare-fun x10 () Real)
(declare-fun x11 () Real)
(declare-fun x12 () Real)
(declare-fun x13 () Real)
(declare-fun x14 () Real)
(declare-fun x15 () Real)
(declare-fun x16 () Real)
(declare-fun x17 () Real)
(declare-fun x18 () Real)
(declare-fun x19 () Real)
(declare-fun x20 () Real)
(declare-fun x21 () Real)
(declare-fun x22 () Real)
(declare-fun x23 () Real)
(declare-fun x24 () Real)
(declare-fun x25 () Real)
(declare-fun x26 () Real)
(declare-fun x27 () Real)
(declare-fun x28 () Real)
(declare-fun x29 () Real)
(declare-fun x30 () Real)
(declare-fun x31 () Real)
(declare-fun x32 () Real)
(declare-fun x33 () Real)
(declare-fun x34 () Real)
(declare-fun x35 () Real)
(declare-fun x36 () Real)
(declare-fun x37 () Real)
(declare-fun x38 () Real)
(declare-fun x39 () Real)
(declare-fun x40 () Real)
(declare-fun x41 () Real)
(declare-fun x42 () Real)
(declare-fun x43 () Real)
(declare-fun x44 () Real)
(declare-fun x45 () Real)
(declare-fun x46 () Real)
(declare-fun x47 () Real)
(declare-fun x48 () Real)
(declare-fun x49 () Real)
(declare-fun f0_1 (Real) Real)
(declare-fun f0_2 (Real Real) Real)
(declare-fun f0_3 (Real Real Real) Real)
(declare-fun f0_4 (Real Real Real Real) Real)
(declare-fun P0 () Bool)
(declare-fun P1 () Bool)
(declare-fun P2 () Bool)
(declare-fun P3 () Bool)
(declare-fun P4 () Bool)
(declare-fun P5 () Bool)
(declare-fun P6 () Bool)
(declare-fun P7 () Bool)
(declare-fun P8 () Bool)
(declare-fun P9 () Bool)
(declare-fun P10 () Bool)
(declare-fun P11 () Bool)
(declare-fun P12 () Bool)
(declare-fun P13 () Bool)
(declare-fun P14 () Bool)
(declare-fun P15 () Bool)
(declare-fun P16 () Bool)
(declare-fun P17 () Bool)
(declare-fun P18 () Bool)
(declare-fun P19 () Bool)
(declare-fun P20 () Bool)
(declare-fun P21 () Bool)
(declare-fun P22 () Bool)
(declare-fun P23 () Bool)
(declare-fun P24 () Bool)
(declare-fun P25 () Bool)
(declare-fun P26 () Bool)
(declare-fun P27 () Bool)
(declare-fun P28 () Bool)
(declare-fun P29 () Bool)
(declare-fun P30 () Bool)
(declare-fun P31 () Bool)
(declare-fun P32 () Bool)
(declare-fun P33 () Bool)
(declare-fun P34 () Bool)
(declare-fun P35 () Bool)
(declare-fun P36 () Bool)
(declare-fun P37 () Bool)
(declare-fun P38 () Bool)
(declare-fun P39 () Bool)
(declare-fun P40 () Bool)
(declare-fun P41 () Bool)
(declare-fun P42 () Bool)
(declare-fun P43 () Bool)
(declare-fun P44 () Bool)
(declare-fun P45 () Bool)
(declare-fun P46 () Bool)
(declare-fun P47 () Bool)
(declare-fun P48 () Bool)
(declare-fun P49 () Bool)
(assert (let ((?v_203 (< (+ (- (* 9 x47) (* 7 x25)) (* 25 x3)) 2)) (?v_107 (* 21 x18)) (?v_78 (<= (- (+ (* 27 x20) (* 2 x3)) (* 2 x6)) 27)) (?v_111 (* 2 x17)) (?v_85 (distinct (+ (- (* 22 x35) (* 5 x43)) (* 13 x35)) 22)) (?v_35 (* 15 x9)) (?v_51 (* 27 x4)) (?v_93 (* 6 x13)) (?v_28 (* 20 x45)) (?v_220 (distinct (+ (- (* 15 x31) (* 24 x8)) (* 20 x13)) 18)) (?v_126 (<= (- (+ (* 7 x39) (* 2 x19)) (* 18 x12)) 6)) (?v_96 (<= (- (- (* 9 x11) (* 6 x26)) (* 10 x43)) 5)) (?v_63 (f0_1 x17))) (let ((?v_70 (= ?v_63 (f0_2 x23 x21))) (?v_169 (= (f0_2 x23 x12) x2)) (?v_124 (distinct x0 (f0_1 x12))) (?v_60 (= x5 (f0_1 x5))) (?v_241 (= x44 (f0_2 x43 x15))) (?v_1 (f0_1 x19))) (let ((?v_3 (= (f0_2 x29 x21) ?v_1)) (?v_68 (distinct x45 x24)) (?v_150 (= (f0_2 x22 x5) (f0_2 x18 x43))) (?v_58 (= (f0_1 x14) (f0_2 x21 x49))) (?v_131 (f0_1 x7))) (let ((?v_15 (distinct ?v_131 (f0_2 x20 x16))) (?v_171 (distinct (f0_2 x48 x27) (f0_2 x40 x38))) (?v_178 (distinct (f0_1 x0) x33)) (?v_145 (= x4 ?v_1)) (?v_77 (= x42 (f0_2 x1 x4))) (?v_23 (= (f0_2 x12 x28) x15)) (?v_250 (distinct x48 x19)) (?v_175 (distinct x1 x35)) (?v_21 (f0_1 x20))) (let ((?v_33 (distinct ?v_21 (f0_2 x43 x40))) (?v_122 (distinct (f0_2 x0 x33) (f0_2 x21 x34))) (?v_162 (= (f0_2 x13 x21) x36)) (?v_102 (= (f0_2 x46 x48) (f0_1 x30))) (?v_11 (f0_1 x41))) (let ((?v_27 (distinct x6 ?v_11)) (?v_18 (= (f0_1 x42) x37)) (?v_80 (f0_1 x48))) (let ((?v_89 (distinct (f0_1 x18) ?v_80)) (?v_225 (= x16 (f0_1 x32))) (?v_144 (= ?v_63 (f0_2 x7 x47))) (?v_57 (distinct x35 x45)) (?v_181 (= (f0_2 x20 x43) (f0_1 x9))) (?v_192 (= ?v_131 (f0_1 x21))) (?v_214 (distinct x28 x36)) (?v_183 (= x20 (f0_2 x40 x13))) (?v_19 (= (f0_1 x46) x29)) (?v_170 (distinct (f0_2 x43 x39) (f0_2 x15 x41))) (?v_164 (distinct x6 (f0_2 x23 x47))) (?v_67 (distinct x35 (f0_1 x24))) (?v_113 (distinct ?v_21 (f0_1 x44))) (?v_69 (f0_1 x29))) (let ((?v_106 (distinct x39 ?v_69)) (?v_9 (= (f0_2 x17 x2) (f0_2 x27 x24))) (?v_159 (= x47 x38)) (?v_13 (distinct (f0_2 x49 x10) (f0_1 x34))) (?v_17 (distinct (f0_2 x12 x29) x31)) (?v_38 (distinct (f0_2 x47 x25) (f0_2 x27 x35))) (?v_103 (distinct (f0_2 x20 x3) x40)) (?v_2 (= ?v_69 (f0_2 x36 x23))) (?v_76 (= (f0_2 x31 x25) (f0_2 x17 x23))) (?v_40 (distinct (f0_1 x47) (f0_2 x25 x48))) (?v_156 (= (f0_1 x22) ?v_80)) (?v_0 (distinct ?v_80 ?v_11)) (?v_213 (= (f0_1 x1) ?v_1)) (?v_252 (= x23 (f0_1 x25)))) (let ((?v_6 (not ?v_76)) (?v_199 (not P43)) (?v_14 (not P6)) (?v_132 (not ?v_15)) (?v_130 (not ?v_250)) (?v_152 (not ?v_162)) (?v_109 (not P17)) (?v_5 (not ?v_171)) (?v_84 (not P41)) (?v_108 (not ?v_9)) (?v_190 (not P47)) (?v_56 (not ?v_225)) (?v_165 (not ?v_3)) (?v_87 (not ?v_2)) (?v_235 (not P13)) (?v_29 (not P38)) (?v_142 (not P36)) (?v_61 (not ?v_77)) (?v_94 (not ?v_103)) (?v_147 (not P4)) (?v_12 (not P19)) (?v_16 (not P14)) (?v_10 (not P39)) (?v_230 (not ?v_126)) (?v_62 (not ?v_27)) (?v_163 (not P10)) (?v_25 (not ?v_19)) (?v_43 (not P48)) (?v_187 (not P49)) (?v_97 (not P20)) (?v_200 (not ?v_17)) (?v_34 (not ?v_23)) (?v_137 (not ?v_18)) (?v_50 (not ?v_241)) (?v_101 (not P15)) (?v_32 (not P18)) (?v_180 (not P26)) (?v_149 (not ?v_40)) (?v_154 (not P22)) (?v_100 (not ?v_124)) (?v_112 (not P46)) (?v_49 (not ?v_0)) (?v_54 (not ?v_220)) (?v_118 (not P40)) (?v_105 (not P29)) (?v_216 (not P3)) (?v_115 (not ?v_57)) (?v_72 (not P32)) (?v_71 (not P8)) (?v_206 (not ?v_70)) (?v_134 (not P16)) (?v_116 (not ?v_164)) (?v_120 (not ?v_85)) (?v_155 (not ?v_96)) (?v_259 (not ?v_38)) (?v_139 (not ?v_213)) (?v_128 (not P28)) (?v_249 (not P2)) (?v_176 (not P21)) (?v_186 (not P33)) (?v_240 (not ?v_106)) (?v_119 (not P30)) (?v_117 (not ?v_60)) (?v_110 (not P37)) (?v_151 (not ?v_113)) (?v_133 (not P9)) (?v_256 (not P24)) (?v_239 (not P12)) (?v_140 (not P11)) (?v_136 (not P7)) (?v_173 (not ?v_181)) (?v_217 (not P42)) (?v_184 (not ?v_192)) (?v_157 (not P5)) (?v_153 (not P23))) (let ((?v_262 (or ?v_132 P34)) (?v_196 (not ?v_252)) (?v_228 (not ?v_122)) (?v_223 (not ?v_156)) (?v_208 (not ?v_170)) (?v_146 (not ?v_33)) (?v_205 (not ?v_13)) (?v_158 (not ?v_150)) (?v_234 (not P45)) (?v_201 (not P0)) (?v_237 (not P31)) (?v_232 (not P27)) (?v_202 (not P44)) (?v_197 (not ?v_169)) (?v_212 (not ?v_175)) (?v_193 (not ?v_178)) (?v_204 (not ?v_183)) (?v_209 (not ?v_67)) (?v_222 (not ?v_58)) (?v_224 (not ?v_203)) (?v_221 (not ?v_78)) (?v_242 (not ?v_102)) (?v_238 (not P34)) (?v_245 (not ?v_145)) (?v_244 (not ?v_214)) (?v_248 (not P35)) (?v_246 (not ?v_89)) (?v_243 (not P25)) (?v_251 (not ?v_68)) (?v_263 (not ?v_144)) (?v_86 (= (- (- (* 11 x27) (* 14 x16)) 0) 9)) (?v_104 (< (+ ?v_51 (* 22 x13) (* 8 x7)) 19)) (?v_65 (< (+ (- 0 (* 12 x22)) ?v_93) 12)) (?v_233 (<= (- (* 14 x27) (* 22 x11)) 11))) (let ((?v_91 (not ?v_233)) (?v_143 (not ?v_104)) (?v_179 (not ?v_86)) (?v_160 (not ?v_65)) (?v_46 (= (+ (- (* (- 15) x35) (* 15 x44)) (* 25 x25)) 13)) (?v_53 (<= (- (* 10 x39) (* 13 x4)) (- 15))) (?v_55 (< (+ (- (* (- 21) x26) ?v_28) ?v_51) (- 25)))) (let ((?v_166 (not ?v_55)) (?v_73 (< (+ (- (* (- 17) x33) ?v_35) (* 3 x30)) 27)) (?v_90 (distinct (- (- 0 (* 16 x34)) (* 20 x11)) (- 22)))) (let ((?v_172 (not ?v_90)) (?v_121 (< (+ (- (* (- 15) x9) (* 18 x4)) (* 11 x4)) 14))) (let ((?v_22 (not ?v_121))) (let ((?v_195 (or ?v_22 P25)) (?v_194 (<= (+ (- (* 8 x33) (* 14 x29)) (* 19 x10)) (- 21)))) (let ((?v_114 (not ?v_194)) (?v_4 (* (- 5) x16))) (let ((?v_218 (< (+ ?v_4 (* 24 x7) (* 9 x29)) 9))) (let ((?v_45 (not ?v_218)) (?v_74 (distinct (+ (* 12 x46) (* 16 x8) (* 10 x28)) (- 8)))) (let ((?v_229 (not ?v_74)) (?v_141 (<= (- (- (* 12 x13) (* 10 x24)) (* 22 x45)) (- 1)))) (let ((?v_7 (not ?v_141)) (?v_161 (< (+ (* (- 5) x13) (* 21 x36) (* 8 x12)) 20))) (let ((?v_98 (not ?v_161)) (?v_83 (<= (+ (- (* (- 13) x44) (* 26 x21)) (* 21 x43)) 10)) (?v_129 (<= (- (+ ?v_4 (* 23 x42)) (* 18 x26)) (- 4)))) (let ((?v_127 (not ?v_129)) (?v_79 (= (+ (- (* (- 1) x15) (* 26 x22)) (* 15 x26)) 23))) (let ((?v_88 (not ?v_79)) (?v_66 (< (+ (- (* 23 x28) (* 8 x29)) (* 5 x5)) (- 28)))) (let ((?v_8 (not ?v_66)) (?v_219 (<= (- (- (* (- 1) x39) (* 8 x5)) (* 6 x16)) (- 3)))) (let ((?v_20 (not ?v_219)) (?v_39 (< (- (- (* 8 x3) (* 8 x44)) (* 17 x18)) (- 19))) (?v_231 (<= (+ (* (- 4) x21) (* 12 x37)) (- 8))) (?v_99 (< (- (- (* (- 13) x33) (* 5 x46)) (* 6 x9)) 24))) (let ((?v_59 (not ?v_99)) (?v_138 (<= (+ (* (- 20) x21) (* 12 x47) (* 13 x13)) (- 1)))) (let ((?v_31 (not ?v_138)) (?v_211 (<= (+ (* (- 19) x12) (* 14 x7) (* 12 x7)) 1))) (let ((?v_44 (not ?v_211)) (?v_26 (< (- (+ (* (- 11) x39) (* 12 x44)) (* 25 x32)) 1))) (let ((?v_24 (not ?v_26)) (?v_47 (= (- (- (* 19 x21) (* 5 x33)) (* 9 x21)) (- 18))) (?v_30 (= (- (- (* 14 x33) (* 15 x30)) ?v_107) (- 13))) (?v_48 (<= (+ (- (* (- 22) x45) (* 11 x11)) (* 16 x27)) (- 21))) (?v_191 (< (+ (- (* (- 18) x1) (* 10 x46)) ?v_28) (- 12))) (?v_189 (distinct (+ (* 9 x37) (* 6 x36) (* 11 x23)) (- 20)))) (let ((?v_36 (not ?v_189)) (?v_123 (not ?v_30)) (?v_42 (= (- (- ?v_35 (* 8 x2)) (* 18 x7)) (- 10)))) (let ((?v_37 (not ?v_42)) (?v_41 (<= (- (- (* 27 x8) 0) (* 8 x25)) (- 12))) (?v_64 (<= (+ (* (- 9) x36) (* 8 x9) (* 14 x49)) 2)) (?v_52 (distinct (+ (- (* 6 x15) (* 5 x35)) (* 10 x4)) (- 13)))) (let ((?v_75 (not ?v_41)) (?v_81 (not ?v_46)) (?v_82 (= (+ (* (- 10) x48) (* 25 x5) (* 25 x19)) 28)) (?v_188 (not ?v_53)) (?v_95 (not ?v_64)) (?v_182 (distinct (+ x26 (* 25 x39) (* 14 x6)) (- 19)))) (let ((?v_254 (not ?v_182)) (?v_168 (not ?v_73)) (?v_227 (not ?v_83)) (?v_92 (<= (- (* 13 x28) (* 20 x5)) (- 25)))) (let ((?v_174 (not ?v_92)) (?v_167 (<= (- (+ (* (- 5) x14) (* 8 x19)) (* 13 x47)) 12)) (?v_185 (<= (+ (* 2 x29) ?v_111 ?v_93) (- 16)))) (let ((?v_261 (not ?v_185)) (?v_247 (or ?v_95 ?v_96)) (?v_177 (< (- (* (- 26) x0) ?v_107) 20)) (?v_135 (= (- (- (* (- 25) x27) (* 19 x28)) ?v_111) 15)) (?v_125 (distinct (- (- (* (- 22) x25) (* 24 x13)) (* 5 x4)) (- 12))) (?v_226 (not ?v_48))) (let ((?v_148 (not ?v_125)) (?v_207 (not ?v_167)) (?v_236 (<= (+ (* (- 13) x26) (* 25 x37) (* 23 x20)) 17)) (?v_198 (not ?v_39)) (?v_210 (not ?v_47)) (?v_215 (not ?v_191)) (?v_253 (not ?v_177)) (?v_255 (not ?v_82))) (let ((?v_258 (not ?v_236)) (?v_260 (not ?v_135)) (?v_257 (not ?v_52))) (and (and (and (and (and (and (and (and (and (and (and (and (and (and (and (and (and (and (and (and (and (and (and (and (and (and (and (and (and (and (and (and (and (and (and (and (and (and (and (and (and (and (and (and (and (and (and (and (and (and (and (and (and (and (and (and (and (and (and (and (and (and (and (and (and (and (and (and (and (and (and (and (and (and (and (and (and (and (and (and (and (and (and (and (and (and (and (and (and (and (and (and (and (and (and (and (and (and (and (and (and (and (and (and (and (and (and (and (and (and (and (and (and (and (and (and (and (and (and (and (and (and (and (and (and (and (and (and (and (and (and (and (and (and (and (and (and (and (and (and (and (and (and (and (and (and (and (and (and (and (and (and (and (and (and (and (and (and (and (and (and (and (and (and (and (and (and (and (and (and (and (and (and (and (and (and (and (and (and (and (and (and (and (and (and (and (and (and (and (and (and (and (and (and (and (and (and (and (and (and (and (and (and (and (and (and (and (and (and (and (and (and (and (and (and (and (and (and (and (and (and (and (and (and (and (and (and (and (and (and (and (and (and (and (and (and (and (and (and (and (and (and (and (and (and (and (and (and (and (and (and (and (and (and (and (and (and (and (and (and (and (and (and (and (and (and (and (and (and (and (and (and (and (and (and (and (and (and (and (and (and (and (and (and (and (and (and (and (and (and (and (and (and (and (and (and (and (and (and (and (and (and (and (and (and (and (and (and (and (and (and (and (and (and (and (and (and (and (and (and (and (and (and (and (and (and (and (and (and (and (and (and (and (and (and (and (and (and (and (and (and (and (and (and (and (and (and (and (and (and (and (and (and (and (and (and (and (and (and (and (and (and (and (and (and (and (and (and (and (and (and (and (and (and (and (and (and (and (and (and (and (and (and (and (and (and (and (and (and (and (and (and (and (and (and (and (and (and (and (and (and (and (and (and (and (and (and (and (and (and (and (and (and (and (and (and (and (and (and (and (and (and (and (and (and (and (and (and (and (and (and (and (and (and (and (and (and (and (and (and (and (and (and (and (and (and (and (and (and (and (and (and (and (and (and (and (and (and (and (and (and (and (and (and (and (and (and (and (and (and (and (and (and (and (and (and (and (and (and (and (and (and (and (and (and (and (and (and (and (and (and (and (and (and (and (and (and (and (and (and (and (and (and (and (and (and (and (and (and (and (and (and (and (and (and (and (and (and (and (and (and (and (and (and (and (and (and (and (and (and (and (and (and (and (and (and (and (and (and (and (and (and (and (and (and (and (and (and (and (and (and (and (and (and (and (and (and (and (and (and (and (and (and (and (and (and (and (and (and (and (and (and (and (and (and (and (and (and (and (and (and (and (and (and (and (and (and (and (and (and (and (and (and (and (and (and (and (and (and (or (or ?v_6 P12) ?v_13) (or (or ?v_46 ?v_0) ?v_53)) (or (or P12 ?v_17) ?v_67)) (or (or ?v_199 ?v_14) P29)) (or (or ?v_166 P29) ?v_70)) (or (or ?v_73 ?v_132) ?v_2)) (or (or P44 ?v_172) P29)) (or (or ?v_145 ?v_178) ?v_130)) (or (or ?v_0 ?v_152) ?v_109)) (or ?v_195 P47)) (or (or ?v_5 ?v_84) ?v_108)) (or (or ?v_114 ?v_190) ?v_56)) (or (or ?v_18 ?v_45) ?v_229)) (or (or ?v_165 ?v_87) P3)) (or (or ?v_235 ?v_29) ?v_3)) (or (or P24 ?v_142) ?v_7)) (or (or ?v_61 ?v_98) ?v_83)) (or (or ?v_127 ?v_94) ?v_57)) (or (or ?v_88 ?v_5) ?v_147)) (or (or ?v_12 ?v_6) ?v_7)) (or (or ?v_8 ?v_16) ?v_10)) (or (or ?v_8 ?v_58) ?v_20)) (or (or ?v_230 ?v_9) ?v_10)) (or (or ?v_62 P16) ?v_12)) (or (or P47 P11) ?v_13)) (or (or P14 ?v_39) ?v_113)) (or (or P49 ?v_163) P46)) (or (or ?v_231 ?v_59) ?v_31)) (or (or ?v_40 ?v_25) ?v_38)) (or (or P25 P46) ?v_44)) (or (or ?v_43 ?v_14) ?v_187)) (or (or P49 ?v_15) ?v_16)) (or (or ?v_97 ?v_68) ?v_200)) (or (or ?v_34 P7) P26)) (or (or ?v_137 P34) P33)) (or (or ?v_24 ?v_19) ?v_47)) (or (or ?v_20 P28) ?v_50)) (or (or P12 ?v_33) P49)) (or (or ?v_22 ?v_30) ?v_101)) (or (or ?v_60 ?v_86) ?v_23)) (or (or ?v_24 P10) ?v_48)) (or (or P29 ?v_32) ?v_25)) (or (or P22 ?v_26) ?v_27)) (or (or ?v_191 ?v_36) ?v_180)) (or (or ?v_29 ?v_123) ?v_31)) (or (or P49 P12) ?v_32)) (or (or P39 ?v_33) P28)) (or (or ?v_34 ?v_37) ?v_41)) (or (or ?v_36 ?v_64) P45)) (or (or ?v_5 ?v_52) ?v_37)) (or (or ?v_38 ?v_5) ?v_39)) (or (or ?v_32 ?v_22) ?v_149)) (or (or ?v_75 P28) P30)) (or (or ?v_159 P9) ?v_102)) (or (or ?v_154 ?v_42) ?v_43)) (or (or ?v_44 ?v_45) ?v_81)) (or (or ?v_27 ?v_16) ?v_169)) (or (or ?v_82 ?v_47) ?v_100)) (or (or ?v_25 ?v_48) P34)) (or (or ?v_112 P41) ?v_40)) (or (or ?v_49 P21) P40)) (or (or P33 ?v_49) ?v_3)) (or (or ?v_50 ?v_54) ?v_45)) (or (or P36 ?v_104) ?v_52)) (or (or ?v_188 ?v_65) P23)) (or (or ?v_54 ?v_55) ?v_39)) (or (or ?v_20 ?v_16) ?v_118)) (or (or ?v_105 ?v_56) ?v_216)) (or (or ?v_115 ?v_58) ?v_59)) (or (or ?v_72 ?v_53) ?v_60)) (or (or ?v_61 ?v_62) ?v_71)) (or (or ?v_144 ?v_95) P16)) (or (or ?v_65 ?v_66) ?v_254)) (or (or ?v_85 ?v_43) ?v_67)) (or (or ?v_68 ?v_106) ?v_206)) (or (or ?v_71 ?v_72) ?v_134)) (or (or ?v_55 P43) ?v_168)) (or (or P42 ?v_91) ?v_74)) (or (or ?v_78 P44) P22)) (or (or ?v_75 ?v_76) ?v_77)) (or (or ?v_78 ?v_175) ?v_79)) (or (or ?v_50 ?v_47) ?v_89)) (or (or ?v_61 ?v_81) ?v_82)) (or (or ?v_116 ?v_227) ?v_20)) (or (or ?v_3 ?v_84) ?v_120)) (or (or ?v_31 ?v_155) ?v_8)) (or (or ?v_15 ?v_259) P34)) (or (or ?v_86 ?v_87) ?v_174)) (or (or ?v_167 ?v_50) ?v_88)) (or (or ?v_89 ?v_90) ?v_91)) (or (or P12 ?v_92) ?v_261)) (or (or ?v_49 P10) P28)) (or (or P24 ?v_94) ?v_32)) (or ?v_247 ?v_97)) (or (or ?v_98 P41) P17)) (or (or ?v_99 ?v_55) ?v_40)) (or (or ?v_100 P34) ?v_101)) (or (or ?v_76 ?v_18) ?v_139)) (or (or ?v_44 P6) ?v_102)) (or (or ?v_103 ?v_128) ?v_46)) (or (or ?v_62 ?v_44) ?v_143)) (or (or ?v_105 ?v_249) P45)) (or (or ?v_176 ?v_186) ?v_18)) (or (or ?v_16 ?v_78) ?v_105)) (or (or ?v_240 ?v_119) P27)) (or (or ?v_78 ?v_117) ?v_110)) (or (or ?v_3 ?v_92) ?v_177)) (or (or P24 ?v_108) ?v_122)) (or (or ?v_109 ?v_40) ?v_110)) (or (or ?v_92 ?v_47) ?v_135)) (or (or P33 ?v_74) ?v_98)) (or (or ?v_112 ?v_125) ?v_151)) (or (or P41 ?v_33) ?v_114)) (or (or ?v_115 ?v_105) ?v_116)) (or (or ?v_133 P42) P37)) (or (or ?v_117 ?v_78) ?v_118)) (or (or ?v_44 ?v_119) P31)) (or (or ?v_106 ?v_183) P43)) (or (or P37 P37) ?v_120)) (or (or P44 ?v_121) ?v_256)) (or (or P30 ?v_239) P31)) (or (or P44 ?v_14) P34)) (or (or ?v_20 ?v_32) ?v_115)) (or (or ?v_140 ?v_122) ?v_38)) (or (or ?v_53 ?v_123) ?v_136)) (or (or ?v_97 ?v_179) ?v_13)) (or (or ?v_24 ?v_124) ?v_125)) (or (or ?v_126 ?v_41) ?v_127)) (or (or ?v_173 ?v_108) ?v_128)) (or (or ?v_217 ?v_129) ?v_130)) (or (or ?v_8 ?v_24) P41)) (or (or ?v_53 ?v_184) ?v_15)) (or (or ?v_157 ?v_73) ?v_153)) (or (or ?v_226 ?v_67) P9)) (or ?v_262 ?v_133)) (or (or ?v_134 ?v_135) ?v_136)) (or (or P43 ?v_137) ?v_138)) (or (or ?v_148 P27) ?v_23)) (or (or P7 P2) P46)) (or (or ?v_134 ?v_196) ?v_56)) (or (or ?v_85 ?v_139) ?v_228)) (or (or ?v_118 ?v_38) ?v_140)) (or (or ?v_141 ?v_142) ?v_108)) (or (or ?v_7 ?v_86) ?v_96)) (or (or ?v_223 ?v_208) ?v_146)) (or (or ?v_143 ?v_27) ?v_118)) (or (or ?v_79 P6) ?v_144)) (or (or ?v_145 ?v_140) ?v_53)) (or (or ?v_60 ?v_52) ?v_39)) (or (or ?v_146 ?v_205) ?v_60)) (or (or ?v_119 ?v_147) ?v_150)) (or (or ?v_74 P23) ?v_148)) (or (or P31 ?v_149) ?v_158)) (or (or P45 ?v_34) ?v_104)) (or (or ?v_135 ?v_151) ?v_152)) (or (or ?v_153 ?v_54) ?v_160)) (or (or P33 ?v_154) ?v_155)) (or (or ?v_234 ?v_124) ?v_139)) (or (or ?v_47 ?v_156) ?v_85)) (or (or ?v_157 ?v_158) ?v_52)) (or (or P11 ?v_159) ?v_20)) (or (or ?v_201 P18) ?v_160)) (or (or ?v_140 P32) ?v_54)) (or (or P24 ?v_102) ?v_26)) (or (or ?v_84 ?v_52) ?v_150)) (or (or ?v_95 ?v_146) P2)) (or (or ?v_161 ?v_46) ?v_162)) (or (or ?v_237 P23) ?v_163)) (or (or ?v_164 ?v_18) ?v_85)) (or (or ?v_2 ?v_148) ?v_165)) (or (or ?v_166 ?v_232) ?v_207)) (or (or ?v_168 ?v_202) ?v_197)) (or (or ?v_203 ?v_10) ?v_108)) (or (or ?v_170 ?v_119) ?v_236)) (or (or ?v_171 ?v_172) ?v_173)) (or (or ?v_49 ?v_174) ?v_113)) (or (or P14 ?v_170) ?v_212)) (or (or P9 ?v_172) ?v_176)) (or (or ?v_177 P11) ?v_156)) (or (or ?v_178 ?v_193) ?v_23)) (or (or P15 ?v_179) P3)) (or (or ?v_180 ?v_6) ?v_48)) (or (or ?v_181 ?v_182) P26)) (or (or ?v_204 ?v_30) ?v_3)) (or (or P49 ?v_157) ?v_57)) (or (or ?v_100 P16) ?v_33)) (or (or P1 ?v_184) ?v_135)) (or (or ?v_185 P13) ?v_50)) (or (or ?v_136 ?v_121) ?v_106)) (or (or ?v_198 ?v_186) ?v_187)) (or (or ?v_40 P13) P40)) (or (or ?v_209 ?v_188) ?v_24)) (or (or P46 ?v_152) ?v_39)) (or (or ?v_115 ?v_134) ?v_189)) (or (or ?v_190 ?v_191) ?v_192)) (or (or ?v_128 ?v_158) ?v_160)) (or (or ?v_193 ?v_59) ?v_163)) (or (or ?v_186 ?v_101) ?v_78)) (or (or ?v_161 ?v_183) ?v_194)) (or ?v_195 ?v_56)) (or (or ?v_196 P26) ?v_197)) (or (or ?v_222 ?v_44) ?v_6)) (or (or ?v_159 ?v_147) ?v_198)) (or (or ?v_196 ?v_2) ?v_184)) (or (or ?v_199 P27) P8)) (or (or P6 ?v_33) P13)) (or (or ?v_200 ?v_120) ?v_201)) (or (or ?v_70 P5) ?v_59)) (or (or ?v_202 ?v_136) ?v_27)) (or (or ?v_192 ?v_149) ?v_224)) (or (or P39 ?v_191) P12)) (or (or ?v_98 ?v_204) ?v_199)) (or (or ?v_205 P12) ?v_221)) (or (or ?v_210 ?v_242) ?v_31)) (or (or P49 ?v_178) ?v_206)) (or (or ?v_207 P5) ?v_108)) (or (or ?v_159 ?v_70) ?v_82)) (or (or ?v_55 ?v_169) ?v_198)) (or (or ?v_196 ?v_65) ?v_215)) (or (or ?v_208 ?v_47) P18)) (or (or P5 ?v_253) P2)) (or (or ?v_156 ?v_62) P46)) (or (or ?v_7 ?v_202) ?v_61)) (or (or P44 ?v_27) ?v_152)) (or (or ?v_97 ?v_84) ?v_209)) (or (or ?v_214 ?v_238) ?v_210)) (or (or ?v_211 ?v_154) ?v_160)) (or (or ?v_132 ?v_67) ?v_144)) (or (or P1 ?v_164) ?v_100)) (or (or ?v_212 P38) ?v_186)) (or (or ?v_132 ?v_213) ?v_32)) (or (or ?v_163 ?v_115) ?v_109)) (or (or ?v_197 P2) ?v_209)) (or (or P39 ?v_62) ?v_172)) (or (or ?v_214 ?v_215) ?v_161)) (or (or ?v_216 ?v_162) ?v_84)) (or (or ?v_175 ?v_217) ?v_58)) (or (or ?v_2 ?v_245) P46)) (or (or ?v_218 ?v_219) ?v_127)) (or (or ?v_109 ?v_114) ?v_136)) (or (or ?v_179 ?v_91) ?v_52)) (or (or ?v_96 ?v_99) ?v_159)) (or (or ?v_176 P48) ?v_102)) (or (or ?v_220 ?v_221) P38)) (or (or P36 ?v_222) ?v_194)) (or (or P3 ?v_60) ?v_200)) (or (or ?v_190 ?v_19) ?v_124)) (or (or ?v_220 ?v_130) ?v_169)) (or (or ?v_207 ?v_189) ?v_82)) (or (or ?v_81 ?v_124) ?v_158)) (or (or ?v_22 ?v_7) ?v_58)) (or (or ?v_89 P33) ?v_136)) (or (or ?v_81 ?v_255) P12)) (or (or ?v_94 P5) ?v_6)) (or (or ?v_33 ?v_223) ?v_190)) (or (or ?v_158 ?v_98) ?v_193)) (or (or P6 P36) ?v_137)) (or (or ?v_67 ?v_158) ?v_224)) (or (or ?v_112 P28) ?v_154)) (or (or ?v_17 ?v_137) ?v_98)) (or (or ?v_225 ?v_171) ?v_44)) (or (or ?v_226 ?v_65) ?v_227)) (or (or ?v_38 ?v_105) ?v_76)) (or (or ?v_15 ?v_91) ?v_53)) (or (or P34 ?v_140) P19)) (or (or ?v_65 ?v_139) ?v_68)) (or (or ?v_142 ?v_59) P10)) (or (or ?v_173 ?v_34) ?v_228)) (or (or ?v_229 ?v_24) ?v_157)) (or (or ?v_230 ?v_41) ?v_92)) (or (or ?v_184 ?v_192) ?v_244)) (or (or ?v_154 ?v_145) ?v_65)) (or (or ?v_137 P22) ?v_220)) (or (or P47 ?v_38) (not ?v_231))) (or (or ?v_214 P47) ?v_71)) (or (or ?v_194 P38) ?v_30)) (or (or ?v_172 ?v_228) ?v_196)) (or (or ?v_248 ?v_232) ?v_181)) (or (or ?v_191 ?v_164) P17)) (or (or ?v_214 ?v_22) ?v_228)) (or (or ?v_26 ?v_119) ?v_74)) (or (or ?v_215 ?v_85) P44)) (or (or ?v_85 ?v_233) P6)) (or (or P8 ?v_211) ?v_83)) (or (or P5 ?v_219) ?v_81)) (or (or ?v_227 ?v_24) ?v_117)) (or (or P3 P25) P40)) (or (or ?v_154 ?v_33) ?v_48)) (or (or ?v_216 P29) ?v_66)) (or (or ?v_187 P40) P9)) (or (or ?v_75 ?v_187) ?v_234)) (or (or ?v_94 ?v_8) ?v_75)) (or (or ?v_60 ?v_142) P38)) (or (or ?v_104 ?v_97) P17)) (or (or ?v_2 ?v_157) ?v_174)) (or (or P23 ?v_113) ?v_235)) (or (or ?v_34 ?v_113) ?v_38)) (or (or ?v_189 P18) ?v_164)) (or (or ?v_25 ?v_79) ?v_187)) (or (or ?v_187 ?v_64) P16)) (or (or ?v_194 ?v_106) ?v_205)) (or (or ?v_90 ?v_236) P29)) (or (or P7 ?v_205) ?v_18)) (or (or ?v_184 ?v_108) ?v_237)) (or (or ?v_88 ?v_171) ?v_22)) (or (or P4 ?v_156) ?v_246)) (or (or P46 ?v_234) ?v_60)) (or (or ?v_83 ?v_181) ?v_74)) (or (or ?v_81 ?v_134) ?v_58)) (or (or P37 ?v_49) P49)) (or (or ?v_67 ?v_125) ?v_26)) (or (or ?v_238 ?v_210) P46)) (or (or ?v_171 P37) P32)) (or (or P11 ?v_117) ?v_239)) (or (or ?v_145 P45) ?v_199)) (or (or ?v_38 ?v_65) ?v_3)) (or (or ?v_25 ?v_211) ?v_161)) (or (or P41 P47) P35)) (or (or ?v_171 ?v_200) ?v_137)) (or (or P47 ?v_240) ?v_103)) (or (or ?v_241 ?v_209) ?v_19)) (or (or ?v_242 ?v_78) ?v_171)) (or (or ?v_141 ?v_118) ?v_206)) (or (or ?v_243 ?v_62) ?v_20)) (or (or ?v_66 ?v_17) ?v_237)) (or (or ?v_193 ?v_43) ?v_52)) (or (or ?v_48 ?v_186) ?v_243)) (or (or ?v_137 ?v_180) ?v_10)) (or (or ?v_79 ?v_229) ?v_168)) (or (or ?v_163 ?v_182) ?v_125)) (or (or ?v_258 ?v_140) ?v_6)) (or (or P35 ?v_224) ?v_184)) (or (or ?v_143 ?v_226) P33)) (or (or ?v_203 P10) ?v_181)) (or (or ?v_128 ?v_44) ?v_53)) (or (or P32 ?v_224) P36)) (or (or P28 ?v_221) P14)) (or (or P23 ?v_49) ?v_81)) (or (or ?v_30 ?v_212) ?v_24)) (or (or ?v_190 ?v_167) ?v_154)) (or (or P20 ?v_206) ?v_8)) (or (or ?v_152 ?v_136) ?v_212)) (or (or ?v_79 ?v_244) ?v_154)) (or (or ?v_83 ?v_173) ?v_202)) (or (or ?v_27 P30) ?v_101)) (or (or ?v_165 ?v_149) ?v_153)) (or (or P35 P23) ?v_119)) (or (or P46 ?v_238) ?v_222)) (or (or P12 P30) ?v_183)) (or (or ?v_189 ?v_121) ?v_91)) (or (or ?v_231 ?v_245) ?v_197)) (or (or ?v_140 P46) ?v_19)) (or (or P1 ?v_251) ?v_200)) (or (or ?v_40 ?v_148) ?v_109)) (or (or ?v_52 P23) ?v_48)) (or (or ?v_89 ?v_246) ?v_64)) (or (or P4 P4) ?v_115)) (or (or ?v_152 ?v_113) ?v_47)) (or (or ?v_129 ?v_241) P22)) (or (or ?v_66 ?v_87) ?v_48)) (or (or P37 P32) ?v_37)) (or (or ?v_156 P12) ?v_64)) (or (or ?v_165 ?v_83) ?v_153)) (or (or ?v_182 ?v_206) P27)) (or (or ?v_3 ?v_119) P7)) (or ?v_247 P11)) (or (or P0 P40) ?v_161)) (or (or ?v_156 P4) ?v_238)) (or (or ?v_244 P10) P37)) (or (or ?v_151 ?v_38) ?v_159)) (or (or ?v_17 ?v_188) ?v_57)) (or (or ?v_141 ?v_193) ?v_120)) (or (or ?v_64 ?v_142) ?v_144)) (or (or ?v_23 ?v_98) ?v_248)) (or (or ?v_89 ?v_190) P5)) (or (or ?v_249 P5) ?v_45)) (or (or ?v_205 ?v_231) ?v_230)) (or (or P12 ?v_12) ?v_248)) (or (or ?v_212 ?v_215) ?v_260)) (or (or ?v_40 ?v_137) ?v_242)) (or (or ?v_68 P46) P11)) (or (or ?v_223 ?v_33) ?v_142)) (or (or ?v_44 ?v_250) ?v_192)) (or (or ?v_193 ?v_175) ?v_154)) (or (or P8 ?v_95) ?v_79)) (or (or ?v_241 ?v_23) ?v_230)) (or (or ?v_160 ?v_164) ?v_112)) (or (or ?v_148 ?v_37) ?v_88)) (or (or ?v_76 ?v_174) ?v_128)) (or (or ?v_230 P24) ?v_91)) (or (or ?v_58 ?v_251) ?v_75)) (or (or ?v_114 P15) ?v_115)) (or (or P11 ?v_210) ?v_188)) (or (or P12 ?v_146) ?v_79)) (or (or ?v_97 ?v_105) ?v_141)) (or (or ?v_148 P14) ?v_183)) (or (or P49 ?v_66) ?v_34)) (or (or ?v_41 ?v_168) P24)) (or (or ?v_226 ?v_229) P26)) (or (or ?v_238 ?v_76) (not ?v_159))) (or (or P22 ?v_105) ?v_252)) (or (or ?v_17 P40) P2)) (or (or ?v_141 P47) ?v_9)) (or (or ?v_153 ?v_248) ?v_52)) (or (or ?v_167 ?v_38) ?v_162)) (or (or ?v_124 ?v_55) P48)) (or (or ?v_182 ?v_239) ?v_257)) (or (or P49 P46) ?v_66)) (or (or ?v_250 ?v_40) ?v_15)) (or (or ?v_96 ?v_170) ?v_85)) (or (or ?v_141 ?v_48) ?v_136)) (or (or ?v_5 ?v_253) ?v_12)) (or (or ?v_183 ?v_86) ?v_73)) (or (or ?v_251 P35) P39)) (or (or ?v_85 ?v_75) ?v_198)) (or (or ?v_87 ?v_225) P10)) (or (or ?v_254 ?v_34) ?v_74)) (or (or ?v_178 ?v_8) ?v_132)) (or (or ?v_176 ?v_10) ?v_94)) (or (or ?v_143 P24) ?v_41)) (or (or ?v_130 ?v_206) ?v_147)) (or (or ?v_157 ?v_47) ?v_48)) (or (or ?v_172 ?v_197) ?v_65)) (or (or ?v_210 P32) ?v_191)) (or (or ?v_238 P47) ?v_14)) (or (or ?v_241 ?v_78) ?v_82)) (or (or ?v_85 ?v_134) ?v_203)) (or (or ?v_45 ?v_39) P7)) (or (or ?v_45 ?v_54) ?v_217)) (or (or ?v_182 ?v_87) ?v_255)) (or (or ?v_219 ?v_31) P26)) (or (or ?v_222 ?v_173) P6)) (or (or ?v_246 ?v_42) ?v_189)) (or (or ?v_137 ?v_237) P39)) (or (or ?v_97 ?v_256) ?v_249)) (or (or ?v_146 ?v_109) ?v_44)) (or (or ?v_225 ?v_34) ?v_62)) (or (or ?v_104 ?v_121) ?v_105)) (or (or ?v_175 ?v_37) ?v_231)) (or (or P49 ?v_114) ?v_213)) (or (or ?v_79 ?v_43) ?v_140)) (or (or ?v_257 ?v_36) ?v_144)) (or (or ?v_216 ?v_256) ?v_184)) (or (or ?v_167 P12) ?v_139)) (or (or ?v_233 ?v_152) ?v_68)) (or (or ?v_81 ?v_252) ?v_218)) (or (or ?v_103 ?v_240) ?v_192)) (or (or ?v_34 ?v_141) ?v_258)) (or (or ?v_204 ?v_157) P9)) (or (or ?v_100 ?v_49) P25)) (or (or ?v_125 ?v_109) ?v_116)) (or (or ?v_117 ?v_112) ?v_250)) (or (or ?v_211 ?v_213) ?v_20)) (or (or P22 ?v_91) ?v_46)) (or (or ?v_204 ?v_213) ?v_177)) (or (or ?v_135 ?v_110) ?v_224)) (or (or ?v_254 ?v_226) ?v_170)) (or (or ?v_62 ?v_242) ?v_250)) (or (or ?v_226 P23) ?v_71)) (or (or ?v_42 ?v_157) ?v_259)) (or (or ?v_86 P6) P9)) (or (or P36 P44) ?v_222)) (or (or ?v_88 ?v_81) ?v_215)) (or (or ?v_214 ?v_160) ?v_122)) (or (or P29 P2) P12)) (or (or ?v_212 ?v_110) ?v_105)) (or (or ?v_163 ?v_72) ?v_212)) (or (or ?v_37 ?v_213) ?v_158)) (or (or ?v_252 P22) P47)) (or (or ?v_105 P27) ?v_31)) (or (or ?v_212 P14) ?v_226)) (or (or P19 ?v_79) ?v_84)) (or (or ?v_238 ?v_224) ?v_230)) (or (or ?v_25 ?v_95) ?v_219)) (or (or ?v_86 ?v_25) ?v_201)) (or (or ?v_42 ?v_152) ?v_0)) (or (or P39 ?v_251) ?v_133)) (or (or P29 P43) ?v_243)) (or (or ?v_194 ?v_22) ?v_205)) (or (or ?v_235 ?v_122) P5)) (or (or ?v_56 ?v_6) ?v_128)) (or (or ?v_260 P37) (not P1))) (or (or ?v_223 ?v_181) ?v_127)) (or (or P14 ?v_61) ?v_259)) (or (or ?v_185 ?v_235) P39)) (or (or ?v_174 ?v_118) ?v_117)) (or (or ?v_205 ?v_169) P12)) (or (or P6 ?v_235) ?v_125)) (or (or ?v_83 ?v_174) ?v_45)) (or (or ?v_164 ?v_97) ?v_157)) (or (or ?v_31 ?v_40) ?v_163)) (or (or ?v_124 ?v_105) ?v_76)) (or (or ?v_42 P7) ?v_58)) (or (or ?v_257 ?v_255) ?v_175)) (or (or P27 ?v_128) ?v_104)) (or (or P2 P9) ?v_242)) (or (or ?v_231 ?v_84) ?v_12)) (or (or ?v_3 ?v_205) ?v_137)) (or (or ?v_162 ?v_125) ?v_142)) (or (or P17 ?v_38) ?v_7)) (or (or ?v_206 ?v_212) ?v_147)) (or (or ?v_109 ?v_43) ?v_82)) (or (or ?v_259 ?v_125) ?v_244)) (or (or P37 ?v_133) ?v_225)) (or (or ?v_12 ?v_190) ?v_105)) (or (or ?v_183 ?v_250) ?v_150)) (or (or ?v_213 P11) ?v_181)) (or (or ?v_181 ?v_165) ?v_19)) (or (or ?v_25 ?v_134) ?v_232)) (or (or ?v_32 ?v_204) ?v_52)) (or (or ?v_219 ?v_112) P47)) (or (or ?v_179 ?v_115) ?v_20)) (or (or P42 ?v_164) ?v_221)) (or (or ?v_24 ?v_152) P40)) (or (or ?v_119 ?v_3) P9)) (or (or ?v_205 P46) ?v_259)) (or (or P9 P43) ?v_129)) (or (or ?v_198 ?v_6) ?v_41)) (or (or ?v_104 ?v_125) ?v_164)) (or (or ?v_166 ?v_96) P31)) (or (or ?v_44 ?v_44) ?v_45)) (or (or ?v_146 ?v_157) ?v_226)) (or (or ?v_32 ?v_203) ?v_110)) (or (or ?v_182 P29) ?v_91)) (or (or ?v_29 ?v_253) ?v_165)) (or (or ?v_230 ?v_161) ?v_46)) (or (or P33 ?v_17) P12)) (or (or ?v_22 ?v_245) ?v_251)) (or (or ?v_54 ?v_68) P41)) (or (or ?v_261 ?v_85) ?v_199)) (or (or ?v_170 ?v_37) ?v_237)) (or (or ?v_194 ?v_219) P21)) (or (or ?v_56 ?v_189) P39)) (or (or ?v_254 ?v_190) ?v_176)) (or (or ?v_250 ?v_36) ?v_252)) (or ?v_262 P37)) (or (or ?v_144 ?v_162) ?v_157)) (or (or ?v_49 P27) ?v_87)) (or (or ?v_196 ?v_216) ?v_211)) (or (or P31 ?v_221) ?v_19)) (or (or ?v_144 ?v_120) ?v_44)) (or (or P13 P10) ?v_62)) (or (or ?v_141 ?v_130) ?v_19)) (or (or ?v_214 ?v_115) ?v_112)) (or (or ?v_204 P49) ?v_192)) (or (or ?v_71 ?v_172) ?v_20)) (or (or ?v_74 ?v_119) ?v_263)) (or (or ?v_103 P41) ?v_163)) (or (or ?v_202 ?v_214) ?v_170)) (or (or P17 ?v_221) ?v_43)) (or (or ?v_106 ?v_149) P38)) (or (or ?v_5 ?v_128) P13)) (or (or ?v_209 ?v_73) ?v_151)) (or (or ?v_24 ?v_116) ?v_212)) (or (or ?v_101 ?v_189) P18)) (or (or P26 ?v_186) ?v_15)) (or (or ?v_180 ?v_110) ?v_214)) (or (or ?v_180 ?v_215) ?v_232)) (or (or ?v_164 ?v_142) ?v_172)) (or (or ?v_102 ?v_253) ?v_169)) (or (or ?v_135 ?v_249) ?v_174)) (or (or ?v_185 ?v_170) ?v_113)) (or (or ?v_180 ?v_33) ?v_25)) (or (or ?v_73 ?v_133) ?v_109)) (or (or ?v_193 ?v_177) ?v_228)) (or (or ?v_114 ?v_138) ?v_5)) (or (or ?v_217 ?v_250) ?v_66)) (or (or ?v_142 ?v_230) ?v_129)) (or (or P12 ?v_225) ?v_160)) (or (or ?v_43 ?v_228) ?v_143)) (or (or ?v_64 ?v_24) ?v_263)) (or (or ?v_22 ?v_158) ?v_37)) (or (or ?v_138 ?v_105) ?v_153)) (or (or ?v_3 ?v_179) ?v_166)) (or (or ?v_167 ?v_17) P38)) (or (or ?v_20 ?v_146) P43)) (or (or ?v_29 ?v_208) ?v_97)) (or (or ?v_226 ?v_7) ?v_258)) (or (or ?v_250 P36) ?v_251)) (or (or P24 ?v_192) ?v_236)) (or (or ?v_25 ?v_140) ?v_174)) (or (or ?v_224 ?v_119) ?v_127)) (or (or ?v_258 ?v_101) ?v_79)) (or (or ?v_110 ?v_220) P31)) (or (or ?v_90 ?v_162) ?v_6)) (or (or P7 ?v_87) ?v_188)) (or (or ?v_105 ?v_12) ?v_156)) (or (or ?v_74 ?v_102) P8)) (or (or ?v_75 ?v_114) ?v_46)) (or (or ?v_114 ?v_83) ?v_253)) (or (or P39 ?v_153) ?v_113)) (or (or ?v_158 P23) ?v_144)) (or (or P20 ?v_106) ?v_216)) (or (or ?v_204 ?v_29) ?v_6)) (or (or ?v_146 ?v_65) ?v_113)) (or (or P43 ?v_2) ?v_76)) (or (or ?v_32 ?v_216) ?v_156)) (or (or P30 ?v_206) ?v_228)) (or (or P38 ?v_90) ?v_47)) (or (or P48 ?v_185) ?v_176))))))))))))))))))))))))))))))))))))))))
(check-sat)
(exit)
